(declare-const havoc Int)
(declare-const |param1@pos':518| Int)
(declare-const |param0@width':519| Int)
(declare-const |K:527| Int)
(declare-const |havoc:3:33| Int)
(declare-const |type_err:26:27:38:528| Int)
(declare-const |param1':516| Int)
(declare-const |param1@width':520| Int)
(declare-const |param0':515| Int)
(declare-const |type_err:29:32:41:531| Int)
(declare-const |type_err:25:28:39:530| Int)
(declare-const |param0@pos':517| Int)
(declare-const |type_err:30:31:40:529| Int)
(assert (and (< (- havoc) 0) (<= (+ havoc -2147483647) 0)
               (< (- |havoc:3:33|) 0) (<= (+ |havoc:3:33| -2147483647) 0)
               (< (- havoc) 0) (< (- |havoc:3:33|) 0)
               (or (not (<= (- |K:527|) 0))
                     (<= (+ |param0':515| |param1':516| |K:527|
                              (- |havoc:3:33|) (- havoc)) 0))
               (or (not (<= (- |K:527|) 0))
                     (<= (+ |param0':515| (- havoc)) 0))
               (or (not (<= (- |K:527|) 0))
                     (<= (+ |param1':516| (- |havoc:3:33|)) 0))
               (or (and (= |K:527| 0)
                          (= (+ (- |param1@width':520|)
                                  |type_err:29:32:41:531|) 0)
                          (= (+ (- |param0@width':519|)
                                  |type_err:25:28:39:530|) 0)
                          (= (+ (- |param1@pos':518|) |type_err:30:31:40:529|) 0)
                          (= (+ (- |param0@pos':517|) |type_err:26:27:38:528|) 0)
                          (= (+ (- |param1':516|) |havoc:3:33|) 0)
                          (= (+ (- |param0':515|) havoc) 0))
                     (and (<= (+ (- |K:527|) 1) 0)
                            (<= (+ (- |havoc:3:33|) 1) 0)
                            (<= (+ (- havoc) 1) 0)
                            (<= (+ (- |havoc:3:33|) (- havoc) 3) 0)
                            (<= (+ (- |param1':516|) 1) 0)
                            (<= (+ (- |param0':515|) 1) 0)))
               (<= (- |K:527|) 0)
               (or (<= |param0':515| 0)
                     (and (< (- |param0':515|) 0) (<= |param1':516| 0)))))
(check-sat)
